10	5
0	3	3	2	1
1	1	4
2	2	7	11
3	1	5
4	2	6	10
5	2	8	9
6	1	11
7	1	11
8	1	11
9	1	11
10	1	11
11	0
0	0	0	0	0	0	0
1	2	2	1	2	2	1
2	6	3	1	4	4	2
3	9	0	4	1	0	0
4	3	0	0	1	2	2
5	7	1	1	2	5	4
6	2	5	0	0	5	4
7	1	1	4	2	5	1
8	10	4	4	1	3	5
9	2	2	0	3	1	1
10	5	0	0	1	0	0
11	0	0	0	0	0	0
5	5	5	5	5
